100 8
598 325
740 186
186 874
214 176
309 740
512 452
237 862
217 170
236 717
663 716
624 106
463 611
632 293
666 787
537 290
66 163
573 874
472 526
309 885
477 594
431 318
502 785
399 151
388 422
832 199
516 606
873 345
579 899
605 901
185 880
225 772
138 666
455 555
723 320
196 855
516 609
185 758
159 802
467 572
77 283
300 665
461 390
419 820
588 792
132 965
614 843
575 594
466 459
207 180
894 151
204 241
201 209
434 527
410 771
198 637
156 275
592 755
526 600
415 834
580 831
836 293
27 172
443 541
287 962
174 454
124 273
621 452
658 109
140 449
864 216
323 632
306 805
192 945
458 412
630 127
544 900
613 785
276 608
866 289
602 302
441 874
271 268
436 176
518 849
123 256
677 295
310 663
329 524
671 199
425 312
333 517
593 494
428 237
165 132
274 320
137 786
426 607
448 506
597 705
130 426
